p tw 28 205
0 1
0 2
0 3
0 4
0 14
0 22
0 21
0 25
0 11
0 12
0 15
0 10
0 23
0 26
0 20
0 24
0 19
0 13
0 7
1 2
1 7
1 13
1 8
1 21
1 25
1 18
1 23
1 14
1 19
1 11
1 24
1 9
1 16
1 22
1 15
1 17
1 6
1 12
2 9
2 25
2 14
2 23
2 3
2 7
2 5
2 17
2 20
2 18
2 26
2 12
3 4
3 11
3 12
3 9
3 20
3 23
3 25
3 7
3 14
3 17
3 19
3 27
3 21
3 6
3 26
4 20
4 12
4 14
4 26
4 7
4 11
4 19
4 17
4 18
4 25
4 16
4 24
5 6
5 7
5 12
5 19
5 17
5 10
5 22
5 11
5 24
6 7
6 9
6 16
6 14
6 18
6 27
6 12
6 13
7 13
7 8
7 11
7 9
7 10
7 24
8 9
8 10
8 11
8 18
8 15
8 16
8 19
8 13
8 20
8 23
8 24
8 27
9 10
9 16
9 12
9 25
9 15
9 21
9 17
9 20
9 23
9 19
9 18
10 20
10 21
10 23
10 22
10 12
10 19
10 18
11 12
11 14
11 17
11 18
11 23
11 24
11 16
11 26
11 20
11 13
12 15
12 14
12 19
12 26
12 27
12 20
12 21
12 17
12 24
13 18
13 19
13 21
13 24
13 22
13 16
13 25
13 17
13 26
13 27
14 15
14 16
14 17
14 22
14 19
14 18
14 20
14 26
15 16
15 18
15 26
15 19
15 17
16 26
16 19
16 22
16 25
16 24
17 23
17 27
17 20
17 18
17 25
17 24
18 19
18 23
18 24
18 26
19 23
19 24
19 22
19 20
19 21
20 21
20 26
20 23
20 25
21 25
21 24
21 26
23 24
23 25
23 27
24 26
24 27
26 27
